============================[ Problem Statistics ]=============================|                                                                             ||  Number of variables:          4242                                         ||  Number of clauses:            9967                                         ||  Parse time:                   0.36 s                                       ||                                                                             |============================[ Search Statistics ]==============================| Conflicts |          ORIGINAL         |          LEARNT          | Progress ||           |    Vars  Clauses Literals |    Limit  Clauses Lit/Cl |          |===============================================================================|       100 |    1591     6172   567053 |     2263      100     53 | 62.501 % |===============================================================================restarts              : 3conflicts             : 207            (374 /sec)decisions             : 473            (0.00 % random) (854 /sec)propagations          : 11666          (21058 /sec)conflict literals     : 14752          (95.11 % deleted)CPU time              : 0.554 sSATISFIABLE